
  32    1
  10

   0   0   3 2 3 5 
   6   3   2 10 4 
   5   9   3 10 7 6 
   7  10   3 11 8 7 
   6  10   3 11 9 8 
   1   7   2 9 8 
   5  10   2 12 9 
   6   6   3 19 14 12 
   8   8   5 19 18 17 15 14 
   1   8   5 28 19 16 15 14 
  10  10   4 17 16 15 14 
   2   6   3 17 16 13 
   8   8   5 28 22 21 20 18 
   3  10   3 25 22 21 
   3   6   3 25 22 20 
   9  10   2 22 18 
  10   9   3 28 25 22 
  10   7   3 25 24 23 
   2   8   5 31 30 27 25 24 
   5  10   2 24 23 
   7   7   2 24 23 
   9  10   4 31 30 27 24 
   6  10   4 31 30 27 26 
   5   5   1 26 
   3   7   1 26 
   2   9   1 29 
   1  10   1 29 
   2   4   1 29 
  10   8   1 32
   9   5   1 32
   9  10   1 32
   0   0   0 
